problem_generation/data/GISP/train/er_n=68_m=1341_p=0.60_SET2_setparam=100.00_alpha=0.50_193.lp
maximize
OBJ:100x0 + 100x1 + 100x2 + 100x3 + 100x4 + 100x5 + 100x6 + 100x7 + 100x8 + 100x9 + 100x10 + 100x11 + 100x12 + 100x13 + 100x14 + 100x15 + 100x16 + 100x17 + 100x18 + 100x19 + 100x20 + 100x21 + 100x22 + 100x23 + 100x24 + 100x25 + 100x26 + 100x27 + 100x28 + 100x29 + 100x30 + 100x31 + 100x32 + 100x33 + 100x34 + 100x35 + 100x36 + 100x37 + 100x38 + 100x39 + 100x40 + 100x41 + 100x42 + 100x43 + 100x44 + 100x45 + 100x46 + 100x47 + 100x48 + 100x49 + 100x50 + 100x51 + 100x52 + 100x53 + 100x54 + 100x55 + 100x56 + 100x57 + 100x58 + 100x59 + 100x60 + 100x61 + 100x62 + 100x63 + 100x64 + 100x65 + 100x66 + 100x67 - y55_57 - y36_53 - y26_30 - y18_26 - y17_58 - y17_67 - y18_44 - y8_9 - y29_41 - y0_14 - y29_59 - y21_55 - y10_36 - y33_47 - y44_47 - y25_43 - y3_15 - y3_24 - y32_60 - y14_33 - y13_65 - y24_65 - y3_42 - y14_42 - y47_48 - y15_25 - y7_30 - y18_30 - y36_66 - y5_60 - y6_34 - y40_54 - y29_63 - y2_27 - y54_65 - y33_42 - y10_49 - y44_51 - y25_47 - y32_55 - y43_55 - y22_32 - y14_28 - y17_39 - y47_61 - y17_57 - y17_66 - y6_29 - y28_66 - y9_62 - y58_67 - y6_47 - y29_49 - y31_67 - y51_54 - y2_49 - y3_14 - y24_46 - y35_46 - y43_59 - y13_55 - y35_55 - y14_32 - y36_47 - y5_50 - y6_15 - y47_65 - y9_48 - y5_59 - y29_35 - y61_67 - y6_42 - y29_44 - y6_51 - y10_12 - y39_48 - y31_53 - y10_30 - y25_28 - y10_39 - y12_58 - y2_35 - y24_32 - y4_63 - y32_45 - y51_58 - y24_41 - y43_54 - y1_48 - y16_46 - y1_57 - y17_20 - y17_29 - y47_51 - y5_45 - y17_47 - y5_54 - y6_19 - y17_56 - y28_56 - y29_30 - y58_66 - y61_62 - y6_37 - y42_58 - y21_35 - y30_65 - y2_3 - y10_16 - y31_48 - y62_63 - y23_53 - y2_30 - y20_66 - y12_62 - y3_4 - y4_58 - y13_36 - y43_49 - y16_32 - y1_43 - y24_45 - y1_52 - y13_54 - y16_50 - y24_63 - y35_63 - y9_11 - y36_37 - y49_65 - y17_42 - y9_38 - y6_14 - y9_47 - y5_58 - y6_23 - y6_32 - y42_53 - y21_30 - y50_66 - y61_66 - y30_60 - y42_62 - y20_34 - y11_65 - y39_47 - y20_43 - y12_39 - y31_52 - y39_65 - y20_61 - y54_63 - y1_29 - y32_44 - y1_47 - y13_49 - y16_45 - y1_56 - y17_19 - y46_55 - y38_51 - y17_28 - y46_64 - y17_37 - y15_67 - y5_44 - y6_9 - y27_41 - y27_50 - y27_59 - y50_61 - y19_55 - y11_51 - y20_29 - y12_25 - y20_38 - y31_38 - y2_11 - y31_47 - y12_43 - y1_15 - y12_61 - y1_24 - y23_61 - y32_39 - y1_33 - y45_67 - y24_44 - y35_44 - y37_63 - y5_21 - y9_19 - y38_55 - y5_30 - y49_55 - y9_28 - y49_64 - y5_39 - y6_13 - y7_67 - y8_32 - y8_41 - y19_41 - y11_37 - y8_50 - y30_50 - y42_52 - y8_59 - y19_59 - y20_24 - y20_42 - y20_51 - y31_51 - y24_30 - y34_62 - y56_62 - y37_58 - y1_46 - y37_67 - y5_7 - y5_16 - y26_48 - y38_50 - y7_44 - y7_53 - y18_53 - y26_66 - y7_62 - y8_27 - y27_40 - y30_45 - y27_58 - y8_54 - y0_50 - y11_50 - y60_64 - y4_11 - y52_60 - y4_20 - y4_29 - y34_39 - y53_61 - y56_57 - y56_66 - y3_60 - y14_60 - y26_34 - y38_45 - y15_61 - y49_63 - y8_31 - y30_31 - y63_65 - y19_40 - y0_36 - y8_49 - y30_49 - y20_23 - y52_55 - y23_37 - y2_63 - y34_43 - y53_56 - y37_39 - y45_52 - y64_65 - y45_61 - y3_55 - y7_25 - y15_38 - y8_17 - y27_30 - y0_13 - y8_26 - y19_26 - y27_39 - y29_58 - y8_35 - y19_44 - y0_40 - y12_14 - y52_59 - y4_19 - y44_55 - y25_51 - y10_62 - y33_64 - y1_4 - y34_38 - y2_67 - y3_32 - y22_45 - y34_47 - y22_54 - y37_52 - y3_59 - y15_24 - y15_33 - y7_38 - y18_38 - y7_47 - y8_12 - y18_47 - y0_8 - y7_56 - y19_21 - y29_53 - y8_30 - y48_66 - y11_26 - y21_67 - y41_45 - y52_54 - y2_44 - y25_46 - y33_59 - y22_31 - y25_64 - y3_27 - y22_40 - y34_42 - y3_36 - y37_47 - y22_58 - y3_54 - y14_63 - y15_28 - y55_64 - y7_24 - y47_60 - y7_33 - y26_46 - y18_42 - y6_55 - y29_57 - y10_43 - y33_45 - y2_39 - y25_41 - y10_52 - y33_54 - y44_63 - y51_62 - y3_31 - y22_44 - y22_53 - y36_46 - y55_59 - y36_64 - y59_66 - y8_11 - y9_65 - y0_7 - y29_43 - y40_43 - y21_39 - y0_16 - y29_52 - y48_65 - y21_48 - y6_59 - y10_29 - y10_38 - y2_34 - y25_36 - y10_47 - y22_30 - y2_61 - y13_58 - y24_58 - y24_67 - y35_67 - y3_44 - y16_63 - y17_46 - y28_46 - y5_53 - y28_55 - y21_25 - y29_38 - y48_51 - y6_45 - y29_47 - y10_24 - y10_33 - y54_67 - y10_51 - y51_52 - y22_25 - y3_30 - y14_30 - y13_62 - y7_9 - y17_41 - y55_67 - y5_48 - y28_50 - y47_63 - y9_46 - y5_57 - y28_59 - y5_66 - y6_31 - y21_29 - y10_28 - y2_24 - y54_62 - y2_33 - y25_35 - y32_34 - y32_52 - y32_61 - y1_55 - y13_57 - y16_53 - y17_18 - y24_66 - y5_34 - y17_36 - y28_36 - y36_49 - y36_58 - y9_41 - y47_58 - y5_52 - y58_64 - y21_24 - y50_60 - y29_37 - y21_33 - y42_65 - y21_42 - y10_23 - y23_51 - y23_60 - y2_37 - y51_60 - y13_43 - y35_43 - y1_50 - y13_52 - y24_52 - y16_48 - y43_65 - y17_22 - y9_18 - y16_66 - y5_29 - y36_44 - y17_40 - y28_40 - y42_51 - y27_62 - y8_67 - y0_63 - y11_63 - y20_41 - y39_54 - y2_14 - y20_50 - y39_63 - y23_46 - y20_59 - y23_55 - y13_20 - y12_64 - y23_64 - y16_25 - y24_38 - y43_51 - y24_47 - y16_52 - y46_53 - y65_66 - y16_61 - y38_58 - y5_33 - y5_42 - y27_48 - y58_63 - y27_57 - y50_59 - y19_53 - y0_49 - y8_62 - y19_62 - y42_64 - y0_67 - y11_67 - y39_49 - y12_41 - y54_56 - y4_37 - y12_50 - y1_22 - y34_65 - y35_42 - y24_51 - y16_47 - y46_57 - y9_17 - y38_53 - y46_66 - y49_53 - y5_37 - y27_52 - y30_48 - y27_61 - y42_59 - y20_22 - y19_66 - y0_62 - y12_27 - y2_4 - y39_53 - y23_36 - y31_49 - y23_45 - y1_8 - y4_41 - y23_54 - y53_55 - y4_59 - y16_24 - y45_60 - y1_35 - y13_37 - y56_60 - y16_33 - y22_67 - y38_39 - y5_14 - y5_23 - y57_61 - y15_55 - y38_57 - y49_57 - y49_66 - y27_29 - y7_60 - y30_34 - y19_43 - y11_39 - y8_52 - y30_52 - y20_26 - y0_57 - y11_66 - y12_31 - y41_67 - y20_44 - y31_44 - y12_40 - y4_36 - y45_55 - y22_62 - y1_39 - y3_67 - y38_52 - y49_52 - y57_65 - y18_46 - y26_59 - y38_61 - y7_55 - y8_20 - y19_29 - y30_38 - y11_34 - y8_47 - y11_43 - y20_21 - y0_52 - y11_52 - y12_17 - y0_61 - y52_62 - y4_40 - y1_16 - y34_50 - y1_25 - y16_23 - y56_59 - y22_66 - y3_62 - y15_45 - y15_54 - y18_50 - y26_63 - y8_24 - y19_24 - y27_37 - y11_29 - y63_67 - y8_42 - y30_42 - y20_25 - y60_61 - y4_17 - y44_53 - y12_30 - y52_66 - y33_62 - y34_36 - y1_11 - y2_65 - y14_39 - y22_52 - y37_50 - y34_63 - y37_59 - y15_31 - y15_40 - y38_42 - y0_6 - y0_24 - y29_60 - y40_60 - y21_65 - y41_52 - y60_65 - y4_12 - y10_46 - y25_44 - y33_57 - y44_57 - y25_53 - y33_66 - y22_29 - y37_45 - y22_65 - y55_62 - y18_22 - y17_63 - y0_1 - y7_49 - y40_46 - y19_23 - y11_19 - y29_55 - y6_62 - y29_64 - y63_66 - y4_7 - y33_43 - y41_56 - y52_56 - y10_50 - y33_52 - y41_65 - y25_48 - y33_61 - y22_24 - y14_29 - y34_44 - y22_51 - y3_47 - y7_8
 Subject to
C1: x0+x1-y0_1 <=1 
C2: x0+x5 <=1 
C3: x0+x6-y0_6 <=1 
C4: x0+x7-y0_7 <=1 
C5: x0+x8-y0_8 <=1 
C6: x0+x10 <=1 
C7: x0+x13-y0_13 <=1 
C8: x0+x14-y0_14 <=1 
C9: x0+x16-y0_16 <=1 
C10: x0+x17 <=1 
C11: x0+x18 <=1 
C12: x0+x19 <=1 
C13: x0+x21 <=1 
C14: x0+x23 <=1 
C15: x0+x24-y0_24 <=1 
C16: x0+x26 <=1 
C17: x0+x30 <=1 
C18: x0+x31 <=1 
C19: x0+x32 <=1 
C20: x0+x33 <=1 
C21: x0+x34 <=1 
C22: x0+x36-y0_36 <=1 
C23: x0+x38 <=1 
C24: x0+x40-y0_40 <=1 
C25: x0+x41 <=1 
C26: x0+x43 <=1 
C27: x0+x47 <=1 
C28: x0+x49-y0_49 <=1 
C29: x0+x50-y0_50 <=1 
C30: x0+x52-y0_52 <=1 
C31: x0+x53 <=1 
C32: x0+x55 <=1 
C33: x0+x56 <=1 
C34: x0+x57-y0_57 <=1 
C35: x0+x61-y0_61 <=1 
C36: x0+x62-y0_62 <=1 
C37: x0+x63-y0_63 <=1 
C38: x0+x66 <=1 
C39: x0+x67-y0_67 <=1 
C40: x1+x2 <=1 
C41: x1+x3 <=1 
C42: x1+x4-y1_4 <=1 
C43: x1+x5 <=1 
C44: x1+x7 <=1 
C45: x1+x8-y1_8 <=1 
C46: x1+x11-y1_11 <=1 
C47: x1+x14 <=1 
C48: x1+x15-y1_15 <=1 
C49: x1+x16-y1_16 <=1 
C50: x1+x18 <=1 
C51: x1+x19 <=1 
C52: x1+x21 <=1 
C53: x1+x22-y1_22 <=1 
C54: x1+x24-y1_24 <=1 
C55: x1+x25-y1_25 <=1 
C56: x1+x28 <=1 
C57: x1+x29-y1_29 <=1 
C58: x1+x31 <=1 
C59: x1+x32 <=1 
C60: x1+x33-y1_33 <=1 
C61: x1+x35-y1_35 <=1 
C62: x1+x36 <=1 
C63: x1+x37 <=1 
C64: x1+x39-y1_39 <=1 
C65: x1+x41 <=1 
C66: x1+x42 <=1 
C67: x1+x43-y1_43 <=1 
C68: x1+x45 <=1 
C69: x1+x46-y1_46 <=1 
C70: x1+x47-y1_47 <=1 
C71: x1+x48-y1_48 <=1 
C72: x1+x50-y1_50 <=1 
C73: x1+x52-y1_52 <=1 
C74: x1+x55-y1_55 <=1 
C75: x1+x56-y1_56 <=1 
C76: x1+x57-y1_57 <=1 
C77: x1+x59 <=1 
C78: x1+x62 <=1 
C79: x1+x64 <=1 
C80: x1+x66 <=1 
C81: x2+x3-y2_3 <=1 
C82: x2+x4-y2_4 <=1 
C83: x2+x6 <=1 
C84: x2+x7 <=1 
C85: x2+x9 <=1 
C86: x2+x11-y2_11 <=1 
C87: x2+x12 <=1 
C88: x2+x14-y2_14 <=1 
C89: x2+x15 <=1 
C90: x2+x18 <=1 
C91: x2+x21 <=1 
C92: x2+x24-y2_24 <=1 
C93: x2+x25 <=1 
C94: x2+x27-y2_27 <=1 
C95: x2+x28 <=1 
C96: x2+x30-y2_30 <=1 
C97: x2+x33-y2_33 <=1 
C98: x2+x34-y2_34 <=1 
C99: x2+x35-y2_35 <=1 
C100: x2+x37-y2_37 <=1 
C101: x2+x39-y2_39 <=1 
C102: x2+x40 <=1 
C103: x2+x43 <=1 
C104: x2+x44-y2_44 <=1 
C105: x2+x48 <=1 
C106: x2+x49-y2_49 <=1 
C107: x2+x50 <=1 
C108: x2+x54 <=1 
C109: x2+x57 <=1 
C110: x2+x58 <=1 
C111: x2+x61-y2_61 <=1 
C112: x2+x63-y2_63 <=1 
C113: x2+x64 <=1 
C114: x2+x65-y2_65 <=1 
C115: x2+x66 <=1 
C116: x2+x67-y2_67 <=1 
C117: x3+x4-y3_4 <=1 
C118: x3+x5 <=1 
C119: x3+x7 <=1 
C120: x3+x8 <=1 
C121: x3+x14-y3_14 <=1 
C122: x3+x15-y3_15 <=1 
C123: x3+x17 <=1 
C124: x3+x18 <=1 
C125: x3+x19 <=1 
C126: x3+x21 <=1 
C127: x3+x22 <=1 
C128: x3+x24-y3_24 <=1 
C129: x3+x27-y3_27 <=1 
C130: x3+x28 <=1 
C131: x3+x30-y3_30 <=1 
C132: x3+x31-y3_31 <=1 
C133: x3+x32-y3_32 <=1 
C134: x3+x36-y3_36 <=1 
C135: x3+x38 <=1 
C136: x3+x42-y3_42 <=1 
C137: x3+x43 <=1 
C138: x3+x44-y3_44 <=1 
C139: x3+x47-y3_47 <=1 
C140: x3+x50 <=1 
C141: x3+x51 <=1 
C142: x3+x53 <=1 
C143: x3+x54-y3_54 <=1 
C144: x3+x55-y3_55 <=1 
C145: x3+x59-y3_59 <=1 
C146: x3+x60-y3_60 <=1 
C147: x3+x62-y3_62 <=1 
C148: x3+x63 <=1 
C149: x3+x65 <=1 
C150: x3+x67-y3_67 <=1 
C151: x4+x5 <=1 
C152: x4+x6 <=1 
C153: x4+x7-y4_7 <=1 
C154: x4+x8 <=1 
C155: x4+x11-y4_11 <=1 
C156: x4+x12-y4_12 <=1 
C157: x4+x13 <=1 
C158: x4+x14 <=1 
C159: x4+x15 <=1 
C160: x4+x16 <=1 
C161: x4+x17-y4_17 <=1 
C162: x4+x18 <=1 
C163: x4+x19-y4_19 <=1 
C164: x4+x20-y4_20 <=1 
C165: x4+x21 <=1 
C166: x4+x25 <=1 
C167: x4+x26 <=1 
C168: x4+x27 <=1 
C169: x4+x29-y4_29 <=1 
C170: x4+x30 <=1 
C171: x4+x31 <=1 
C172: x4+x32 <=1 
C173: x4+x33 <=1 
C174: x4+x36-y4_36 <=1 
C175: x4+x37-y4_37 <=1 
C176: x4+x38 <=1 
C177: x4+x40-y4_40 <=1 
C178: x4+x41-y4_41 <=1 
C179: x4+x42 <=1 
C180: x4+x44 <=1 
C181: x4+x46 <=1 
C182: x4+x51 <=1 
C183: x4+x52 <=1 
C184: x4+x58-y4_58 <=1 
C185: x4+x59-y4_59 <=1 
C186: x4+x62 <=1 
C187: x4+x63-y4_63 <=1 
C188: x4+x65 <=1 
C189: x4+x66 <=1 
C190: x5+x7-y5_7 <=1 
C191: x5+x13 <=1 
C192: x5+x14-y5_14 <=1 
C193: x5+x16-y5_16 <=1 
C194: x5+x19 <=1 
C195: x5+x20 <=1 
C196: x5+x21-y5_21 <=1 
C197: x5+x22 <=1 
C198: x5+x23-y5_23 <=1 
C199: x5+x24 <=1 
C200: x5+x26 <=1 
C201: x5+x29-y5_29 <=1 
C202: x5+x30-y5_30 <=1 
C203: x5+x33-y5_33 <=1 
C204: x5+x34-y5_34 <=1 
C205: x5+x35 <=1 
C206: x5+x37-y5_37 <=1 
C207: x5+x39-y5_39 <=1 
C208: x5+x40 <=1 
C209: x5+x41 <=1 
C210: x5+x42-y5_42 <=1 
C211: x5+x44-y5_44 <=1 
C212: x5+x45-y5_45 <=1 
C213: x5+x48-y5_48 <=1 
C214: x5+x49 <=1 
C215: x5+x50-y5_50 <=1 
C216: x5+x52-y5_52 <=1 
C217: x5+x53-y5_53 <=1 
C218: x5+x54-y5_54 <=1 
C219: x5+x57-y5_57 <=1 
C220: x5+x58-y5_58 <=1 
C221: x5+x59-y5_59 <=1 
C222: x5+x60-y5_60 <=1 
C223: x5+x65 <=1 
C224: x5+x66-y5_66 <=1 
C225: x5+x67 <=1 
C226: x6+x7 <=1 
C227: x6+x9-y6_9 <=1 
C228: x6+x10 <=1 
C229: x6+x12 <=1 
C230: x6+x13-y6_13 <=1 
C231: x6+x14-y6_14 <=1 
C232: x6+x15-y6_15 <=1 
C233: x6+x19-y6_19 <=1 
C234: x6+x20 <=1 
C235: x6+x21 <=1 
C236: x6+x23-y6_23 <=1 
C237: x6+x24 <=1 
C238: x6+x28 <=1 
C239: x6+x29-y6_29 <=1 
C240: x6+x30 <=1 
C241: x6+x31-y6_31 <=1 
C242: x6+x32-y6_32 <=1 
C243: x6+x34-y6_34 <=1 
C244: x6+x36 <=1 
C245: x6+x37-y6_37 <=1 
C246: x6+x40 <=1 
C247: x6+x42-y6_42 <=1 
C248: x6+x43 <=1 
C249: x6+x45-y6_45 <=1 
C250: x6+x46 <=1 
C251: x6+x47-y6_47 <=1 
C252: x6+x51-y6_51 <=1 
C253: x6+x52 <=1 
C254: x6+x55-y6_55 <=1 
C255: x6+x56 <=1 
C256: x6+x57 <=1 
C257: x6+x58 <=1 
C258: x6+x59-y6_59 <=1 
C259: x6+x62-y6_62 <=1 
C260: x6+x64 <=1 
C261: x6+x66 <=1 
C262: x7+x8-y7_8 <=1 
C263: x7+x9-y7_9 <=1 
C264: x7+x10 <=1 
C265: x7+x13 <=1 
C266: x7+x17 <=1 
C267: x7+x19 <=1 
C268: x7+x20 <=1 
C269: x7+x21 <=1 
C270: x7+x23 <=1 
C271: x7+x24-y7_24 <=1 
C272: x7+x25-y7_25 <=1 
C273: x7+x29 <=1 
C274: x7+x30-y7_30 <=1 
C275: x7+x31 <=1 
C276: x7+x33-y7_33 <=1 
C277: x7+x35 <=1 
C278: x7+x37 <=1 
C279: x7+x38-y7_38 <=1 
C280: x7+x40 <=1 
C281: x7+x41 <=1 
C282: x7+x44-y7_44 <=1 
C283: x7+x46 <=1 
C284: x7+x47-y7_47 <=1 
C285: x7+x48 <=1 
C286: x7+x49-y7_49 <=1 
C287: x7+x50 <=1 
C288: x7+x51 <=1 
C289: x7+x52 <=1 
C290: x7+x53-y7_53 <=1 
C291: x7+x54 <=1 
C292: x7+x55-y7_55 <=1 
C293: x7+x56-y7_56 <=1 
C294: x7+x60-y7_60 <=1 
C295: x7+x62-y7_62 <=1 
C296: x7+x63 <=1 
C297: x7+x64 <=1 
C298: x7+x67-y7_67 <=1 
C299: x8+x9-y8_9 <=1 
C300: x8+x11-y8_11 <=1 
C301: x8+x12-y8_12 <=1 
C302: x8+x15 <=1 
C303: x8+x16 <=1 
C304: x8+x17-y8_17 <=1 
C305: x8+x18 <=1 
C306: x8+x19 <=1 
C307: x8+x20-y8_20 <=1 
C308: x8+x21 <=1 
C309: x8+x23 <=1 
C310: x8+x24-y8_24 <=1 
C311: x8+x25 <=1 
C312: x8+x26-y8_26 <=1 
C313: x8+x27-y8_27 <=1 
C314: x8+x29 <=1 
C315: x8+x30-y8_30 <=1 
C316: x8+x31-y8_31 <=1 
C317: x8+x32-y8_32 <=1 
C318: x8+x33 <=1 
C319: x8+x35-y8_35 <=1 
C320: x8+x36 <=1 
C321: x8+x37 <=1 
C322: x8+x38 <=1 
C323: x8+x40 <=1 
C324: x8+x41-y8_41 <=1 
C325: x8+x42-y8_42 <=1 
C326: x8+x46 <=1 
C327: x8+x47-y8_47 <=1 
C328: x8+x48 <=1 
C329: x8+x49-y8_49 <=1 
C330: x8+x50-y8_50 <=1 
C331: x8+x52-y8_52 <=1 
C332: x8+x54-y8_54 <=1 
C333: x8+x57 <=1 
C334: x8+x58 <=1 
C335: x8+x59-y8_59 <=1 
C336: x8+x60 <=1 
C337: x8+x62-y8_62 <=1 
C338: x8+x63 <=1 
C339: x8+x66 <=1 
C340: x8+x67-y8_67 <=1 
C341: x9+x11-y9_11 <=1 
C342: x9+x12 <=1 
C343: x9+x13 <=1 
C344: x9+x14 <=1 
C345: x9+x17-y9_17 <=1 
C346: x9+x18-y9_18 <=1 
C347: x9+x19-y9_19 <=1 
C348: x9+x23 <=1 
C349: x9+x25 <=1 
C350: x9+x26 <=1 
C351: x9+x28-y9_28 <=1 
C352: x9+x30 <=1 
C353: x9+x31 <=1 
C354: x9+x32 <=1 
C355: x9+x33 <=1 
C356: x9+x34 <=1 
C357: x9+x38-y9_38 <=1 
C358: x9+x39 <=1 
C359: x9+x40 <=1 
C360: x9+x41-y9_41 <=1 
C361: x9+x44 <=1 
C362: x9+x45 <=1 
C363: x9+x46-y9_46 <=1 
C364: x9+x47-y9_47 <=1 
C365: x9+x48-y9_48 <=1 
C366: x9+x50 <=1 
C367: x9+x52 <=1 
C368: x9+x59 <=1 
C369: x9+x60 <=1 
C370: x9+x62-y9_62 <=1 
C371: x9+x64 <=1 
C372: x9+x65-y9_65 <=1 
C373: x9+x66 <=1 
C374: x9+x67 <=1 
C375: x10+x12-y10_12 <=1 
C376: x10+x13 <=1 
C377: x10+x15 <=1 
C378: x10+x16-y10_16 <=1 
C379: x10+x17 <=1 
C380: x10+x23-y10_23 <=1 
C381: x10+x24-y10_24 <=1 
C382: x10+x25 <=1 
C383: x10+x26 <=1 
C384: x10+x27 <=1 
C385: x10+x28-y10_28 <=1 
C386: x10+x29-y10_29 <=1 
C387: x10+x30-y10_30 <=1 
C388: x10+x33-y10_33 <=1 
C389: x10+x34 <=1 
C390: x10+x36-y10_36 <=1 
C391: x10+x37 <=1 
C392: x10+x38-y10_38 <=1 
C393: x10+x39-y10_39 <=1 
C394: x10+x40 <=1 
C395: x10+x41 <=1 
C396: x10+x43-y10_43 <=1 
C397: x10+x45 <=1 
C398: x10+x46-y10_46 <=1 
C399: x10+x47-y10_47 <=1 
C400: x10+x49-y10_49 <=1 
C401: x10+x50-y10_50 <=1 
C402: x10+x51-y10_51 <=1 
C403: x10+x52-y10_52 <=1 
C404: x10+x56 <=1 
C405: x10+x58 <=1 
C406: x10+x62-y10_62 <=1 
C407: x10+x63 <=1 
C408: x10+x65 <=1 
C409: x11+x12 <=1 
C410: x11+x17 <=1 
C411: x11+x18 <=1 
C412: x11+x19-y11_19 <=1 
C413: x11+x20 <=1 
C414: x11+x21 <=1 
C415: x11+x23 <=1 
C416: x11+x24 <=1 
C417: x11+x25 <=1 
C418: x11+x26-y11_26 <=1 
C419: x11+x29-y11_29 <=1 
C420: x11+x31 <=1 
C421: x11+x34-y11_34 <=1 
C422: x11+x35 <=1 
C423: x11+x36 <=1 
C424: x11+x37-y11_37 <=1 
C425: x11+x38 <=1 
C426: x11+x39-y11_39 <=1 
C427: x11+x43-y11_43 <=1 
C428: x11+x45 <=1 
C429: x11+x48 <=1 
C430: x11+x50-y11_50 <=1 
C431: x11+x51-y11_51 <=1 
C432: x11+x52-y11_52 <=1 
C433: x11+x54 <=1 
C434: x11+x57 <=1 
C435: x11+x58 <=1 
C436: x11+x60 <=1 
C437: x11+x61 <=1 
C438: x11+x63-y11_63 <=1 
C439: x11+x65-y11_65 <=1 
C440: x11+x66-y11_66 <=1 
C441: x11+x67-y11_67 <=1 
C442: x12+x14-y12_14 <=1 
C443: x12+x16 <=1 
C444: x12+x17-y12_17 <=1 
C445: x12+x18 <=1 
C446: x12+x20 <=1 
C447: x12+x25-y12_25 <=1 
C448: x12+x26 <=1 
C449: x12+x27-y12_27 <=1 
C450: x12+x28 <=1 
C451: x12+x30-y12_30 <=1 
C452: x12+x31-y12_31 <=1 
C453: x12+x39-y12_39 <=1 
C454: x12+x40-y12_40 <=1 
C455: x12+x41-y12_41 <=1 
C456: x12+x42 <=1 
C457: x12+x43-y12_43 <=1 
C458: x12+x50-y12_50 <=1 
C459: x12+x52 <=1 
C460: x12+x53 <=1 
C461: x12+x55 <=1 
C462: x12+x58-y12_58 <=1 
C463: x12+x61-y12_61 <=1 
C464: x12+x62-y12_62 <=1 
C465: x12+x64-y12_64 <=1 
C466: x12+x65 <=1 
C467: x12+x66 <=1 
C468: x12+x67 <=1 
C469: x13+x14 <=1 
C470: x13+x15 <=1 
C471: x13+x16 <=1 
C472: x13+x17 <=1 
C473: x13+x19 <=1 
C474: x13+x20-y13_20 <=1 
C475: x13+x21 <=1 
C476: x13+x22 <=1 
C477: x13+x23 <=1 
C478: x13+x25 <=1 
C479: x13+x30 <=1 
C480: x13+x31 <=1 
C481: x13+x33 <=1 
C482: x13+x34 <=1 
C483: x13+x35 <=1 
C484: x13+x36-y13_36 <=1 
C485: x13+x37-y13_37 <=1 
C486: x13+x39 <=1 
C487: x13+x42 <=1 
C488: x13+x43-y13_43 <=1 
C489: x13+x46 <=1 
C490: x13+x47 <=1 
C491: x13+x48 <=1 
C492: x13+x49-y13_49 <=1 
C493: x13+x50 <=1 
C494: x13+x52-y13_52 <=1 
C495: x13+x53 <=1 
C496: x13+x54-y13_54 <=1 
C497: x13+x55-y13_55 <=1 
C498: x13+x57-y13_57 <=1 
C499: x13+x58-y13_58 <=1 
C500: x13+x62-y13_62 <=1 
C501: x13+x65-y13_65 <=1 
C502: x14+x17 <=1 
C503: x14+x18 <=1 
C504: x14+x21 <=1 
C505: x14+x25 <=1 
C506: x14+x26 <=1 
C507: x14+x27 <=1 
C508: x14+x28-y14_28 <=1 
C509: x14+x29-y14_29 <=1 
C510: x14+x30-y14_30 <=1 
C511: x14+x32-y14_32 <=1 
C512: x14+x33-y14_33 <=1 
C513: x14+x34 <=1 
C514: x14+x35 <=1 
C515: x14+x36 <=1 
C516: x14+x38 <=1 
C517: x14+x39-y14_39 <=1 
C518: x14+x41 <=1 
C519: x14+x42-y14_42 <=1 
C520: x14+x45 <=1 
C521: x14+x46 <=1 
C522: x14+x48 <=1 
C523: x14+x53 <=1 
C524: x14+x55 <=1 
C525: x14+x57 <=1 
C526: x14+x60-y14_60 <=1 
C527: x14+x62 <=1 
C528: x14+x63-y14_63 <=1 
C529: x15+x19 <=1 
C530: x15+x23 <=1 
C531: x15+x24-y15_24 <=1 
C532: x15+x25-y15_25 <=1 
C533: x15+x27 <=1 
C534: x15+x28-y15_28 <=1 
C535: x15+x29 <=1 
C536: x15+x30 <=1 
C537: x15+x31-y15_31 <=1 
C538: x15+x33-y15_33 <=1 
C539: x15+x34 <=1 
C540: x15+x35 <=1 
C541: x15+x36 <=1 
C542: x15+x37 <=1 
C543: x15+x38-y15_38 <=1 
C544: x15+x40-y15_40 <=1 
C545: x15+x41 <=1 
C546: x15+x42 <=1 
C547: x15+x43 <=1 
C548: x15+x44 <=1 
C549: x15+x45-y15_45 <=1 
C550: x15+x46 <=1 
C551: x15+x47 <=1 
C552: x15+x50 <=1 
C553: x15+x53 <=1 
C554: x15+x54-y15_54 <=1 
C555: x15+x55-y15_55 <=1 
C556: x15+x56 <=1 
C557: x15+x60 <=1 
C558: x15+x61-y15_61 <=1 
C559: x15+x63 <=1 
C560: x15+x64 <=1 
C561: x15+x66 <=1 
C562: x15+x67-y15_67 <=1 
C563: x16+x17 <=1 
C564: x16+x19 <=1 
C565: x16+x21 <=1 
C566: x16+x22 <=1 
C567: x16+x23-y16_23 <=1 
C568: x16+x24-y16_24 <=1 
C569: x16+x25-y16_25 <=1 
C570: x16+x27 <=1 
C571: x16+x31 <=1 
C572: x16+x32-y16_32 <=1 
C573: x16+x33-y16_33 <=1 
C574: x16+x34 <=1 
C575: x16+x35 <=1 
C576: x16+x36 <=1 
C577: x16+x38 <=1 
C578: x16+x40 <=1 
C579: x16+x41 <=1 
C580: x16+x43 <=1 
C581: x16+x45-y16_45 <=1 
C582: x16+x46-y16_46 <=1 
C583: x16+x47-y16_47 <=1 
C584: x16+x48-y16_48 <=1 
C585: x16+x49 <=1 
C586: x16+x50-y16_50 <=1 
C587: x16+x52-y16_52 <=1 
C588: x16+x53-y16_53 <=1 
C589: x16+x59 <=1 
C590: x16+x60 <=1 
C591: x16+x61-y16_61 <=1 
C592: x16+x63-y16_63 <=1 
C593: x16+x64 <=1 
C594: x16+x65 <=1 
C595: x16+x66-y16_66 <=1 
C596: x17+x18-y17_18 <=1 
C597: x17+x19-y17_19 <=1 
C598: x17+x20-y17_20 <=1 
C599: x17+x21 <=1 
C600: x17+x22-y17_22 <=1 
C601: x17+x23 <=1 
C602: x17+x26 <=1 
C603: x17+x28-y17_28 <=1 
C604: x17+x29-y17_29 <=1 
C605: x17+x34 <=1 
C606: x17+x36-y17_36 <=1 
C607: x17+x37-y17_37 <=1 
C608: x17+x38 <=1 
C609: x17+x39-y17_39 <=1 
C610: x17+x40-y17_40 <=1 
C611: x17+x41-y17_41 <=1 
C612: x17+x42-y17_42 <=1 
C613: x17+x46-y17_46 <=1 
C614: x17+x47-y17_47 <=1 
C615: x17+x51 <=1 
C616: x17+x53 <=1 
C617: x17+x56-y17_56 <=1 
C618: x17+x57-y17_57 <=1 
C619: x17+x58-y17_58 <=1 
C620: x17+x60 <=1 
C621: x17+x62 <=1 
C622: x17+x63-y17_63 <=1 
C623: x17+x64 <=1 
C624: x17+x66-y17_66 <=1 
C625: x17+x67-y17_67 <=1 
C626: x18+x22-y18_22 <=1 
C627: x18+x23 <=1 
C628: x18+x24 <=1 
C629: x18+x26-y18_26 <=1 
C630: x18+x29 <=1 
C631: x18+x30-y18_30 <=1 
C632: x18+x31 <=1 
C633: x18+x32 <=1 
C634: x18+x35 <=1 
C635: x18+x38-y18_38 <=1 
C636: x18+x39 <=1 
C637: x18+x42-y18_42 <=1 
C638: x18+x44-y18_44 <=1 
C639: x18+x46-y18_46 <=1 
C640: x18+x47-y18_47 <=1 
C641: x18+x50-y18_50 <=1 
C642: x18+x51 <=1 
C643: x18+x52 <=1 
C644: x18+x53-y18_53 <=1 
C645: x18+x55 <=1 
C646: x18+x56 <=1 
C647: x18+x59 <=1 
C648: x18+x60 <=1 
C649: x18+x61 <=1 
C650: x18+x62 <=1 
C651: x18+x64 <=1 
C652: x18+x66 <=1 
C653: x18+x67 <=1 
C654: x19+x21-y19_21 <=1 
C655: x19+x23-y19_23 <=1 
C656: x19+x24-y19_24 <=1 
C657: x19+x25 <=1 
C658: x19+x26-y19_26 <=1 
C659: x19+x29-y19_29 <=1 
C660: x19+x31 <=1 
C661: x19+x36 <=1 
C662: x19+x37 <=1 
C663: x19+x38 <=1 
C664: x19+x40-y19_40 <=1 
C665: x19+x41-y19_41 <=1 
C666: x19+x42 <=1 
C667: x19+x43-y19_43 <=1 
C668: x19+x44-y19_44 <=1 
C669: x19+x47 <=1 
C670: x19+x48 <=1 
C671: x19+x51 <=1 
C672: x19+x53-y19_53 <=1 
C673: x19+x55-y19_55 <=1 
C674: x19+x56 <=1 
C675: x19+x58 <=1 
C676: x19+x59-y19_59 <=1 
C677: x19+x60 <=1 
C678: x19+x61 <=1 
C679: x19+x62-y19_62 <=1 
C680: x19+x63 <=1 
C681: x19+x66-y19_66 <=1 
C682: x20+x21-y20_21 <=1 
C683: x20+x22-y20_22 <=1 
C684: x20+x23-y20_23 <=1 
C685: x20+x24-y20_24 <=1 
C686: x20+x25-y20_25 <=1 
C687: x20+x26-y20_26 <=1 
C688: x20+x28 <=1 
C689: x20+x29-y20_29 <=1 
C690: x20+x32 <=1 
C691: x20+x34-y20_34 <=1 
C692: x20+x38-y20_38 <=1 
C693: x20+x41-y20_41 <=1 
C694: x20+x42-y20_42 <=1 
C695: x20+x43-y20_43 <=1 
C696: x20+x44-y20_44 <=1 
C697: x20+x45 <=1 
C698: x20+x46 <=1 
C699: x20+x47 <=1 
C700: x20+x48 <=1 
C701: x20+x49 <=1 
C702: x20+x50-y20_50 <=1 
C703: x20+x51-y20_51 <=1 
C704: x20+x54 <=1 
C705: x20+x55 <=1 
C706: x20+x56 <=1 
C707: x20+x59-y20_59 <=1 
C708: x20+x61-y20_61 <=1 
C709: x20+x62 <=1 
C710: x20+x63 <=1 
C711: x20+x64 <=1 
C712: x20+x65 <=1 
C713: x20+x66-y20_66 <=1 
C714: x21+x23 <=1 
C715: x21+x24-y21_24 <=1 
C716: x21+x25-y21_25 <=1 
C717: x21+x26 <=1 
C718: x21+x28 <=1 
C719: x21+x29-y21_29 <=1 
C720: x21+x30-y21_30 <=1 
C721: x21+x32 <=1 
C722: x21+x33-y21_33 <=1 
C723: x21+x34 <=1 
C724: x21+x35-y21_35 <=1 
C725: x21+x39-y21_39 <=1 
C726: x21+x42-y21_42 <=1 
C727: x21+x43 <=1 
C728: x21+x44 <=1 
C729: x21+x46 <=1 
C730: x21+x48-y21_48 <=1 
C731: x21+x52 <=1 
C732: x21+x55-y21_55 <=1 
C733: x21+x56 <=1 
C734: x21+x57 <=1 
C735: x21+x58 <=1 
C736: x21+x61 <=1 
C737: x21+x62 <=1 
C738: x21+x65-y21_65 <=1 
C739: x21+x67-y21_67 <=1 
C740: x22+x23 <=1 
C741: x22+x24-y22_24 <=1 
C742: x22+x25-y22_25 <=1 
C743: x22+x26 <=1 
C744: x22+x29-y22_29 <=1 
C745: x22+x30-y22_30 <=1 
C746: x22+x31-y22_31 <=1 
C747: x22+x32-y22_32 <=1 
C748: x22+x34 <=1 
C749: x22+x38 <=1 
C750: x22+x39 <=1 
C751: x22+x40-y22_40 <=1 
C752: x22+x44-y22_44 <=1 
C753: x22+x45-y22_45 <=1 
C754: x22+x50 <=1 
C755: x22+x51-y22_51 <=1 
C756: x22+x52-y22_52 <=1 
C757: x22+x53-y22_53 <=1 
C758: x22+x54-y22_54 <=1 
C759: x22+x55 <=1 
C760: x22+x56 <=1 
C761: x22+x57 <=1 
C762: x22+x58-y22_58 <=1 
C763: x22+x62-y22_62 <=1 
C764: x22+x65-y22_65 <=1 
C765: x22+x66-y22_66 <=1 
C766: x22+x67-y22_67 <=1 
C767: x23+x25 <=1 
C768: x23+x27 <=1 
C769: x23+x28 <=1 
C770: x23+x29 <=1 
C771: x23+x31 <=1 
C772: x23+x32 <=1 
C773: x23+x34 <=1 
C774: x23+x36-y23_36 <=1 
C775: x23+x37-y23_37 <=1 
C776: x23+x45-y23_45 <=1 
C777: x23+x46-y23_46 <=1 
C778: x23+x47 <=1 
C779: x23+x48 <=1 
C780: x23+x49 <=1 
C781: x23+x50 <=1 
C782: x23+x51-y23_51 <=1 
C783: x23+x53-y23_53 <=1 
C784: x23+x54-y23_54 <=1 
C785: x23+x55-y23_55 <=1 
C786: x23+x56 <=1 
C787: x23+x57 <=1 
C788: x23+x58 <=1 
C789: x23+x59 <=1 
C790: x23+x60-y23_60 <=1 
C791: x23+x61-y23_61 <=1 
C792: x23+x64-y23_64 <=1 
C793: x23+x65 <=1 
C794: x24+x30-y24_30 <=1 
C795: x24+x31 <=1 
C796: x24+x32-y24_32 <=1 
C797: x24+x34 <=1 
C798: x24+x36 <=1 
C799: x24+x37 <=1 
C800: x24+x38-y24_38 <=1 
C801: x24+x39 <=1 
C802: x24+x40 <=1 
C803: x24+x41-y24_41 <=1 
C804: x24+x44-y24_44 <=1 
C805: x24+x45-y24_45 <=1 
C806: x24+x46-y24_46 <=1 
C807: x24+x47-y24_47 <=1 
C808: x24+x48 <=1 
C809: x24+x50 <=1 
C810: x24+x51-y24_51 <=1 
C811: x24+x52-y24_52 <=1 
C812: x24+x53 <=1 
C813: x24+x56 <=1 
C814: x24+x58-y24_58 <=1 
C815: x24+x60 <=1 
C816: x24+x63-y24_63 <=1 
C817: x24+x65-y24_65 <=1 
C818: x24+x66-y24_66 <=1 
C819: x24+x67-y24_67 <=1 
C820: x25+x26 <=1 
C821: x25+x27 <=1 
C822: x25+x28-y25_28 <=1 
C823: x25+x31 <=1 
C824: x25+x32 <=1 
C825: x25+x33 <=1 
C826: x25+x35-y25_35 <=1 
C827: x25+x36-y25_36 <=1 
C828: x25+x37 <=1 
C829: x25+x39 <=1 
C830: x25+x40 <=1 
C831: x25+x41-y25_41 <=1 
C832: x25+x43-y25_43 <=1 
C833: x25+x44-y25_44 <=1 
C834: x25+x45 <=1 
C835: x25+x46-y25_46 <=1 
C836: x25+x47-y25_47 <=1 
C837: x25+x48-y25_48 <=1 
C838: x25+x49 <=1 
C839: x25+x50 <=1 
C840: x25+x51-y25_51 <=1 
C841: x25+x52 <=1 
C842: x25+x53-y25_53 <=1 
C843: x25+x54 <=1 
C844: x25+x55 <=1 
C845: x25+x60 <=1 
C846: x25+x63 <=1 
C847: x25+x64-y25_64 <=1 
C848: x25+x66 <=1 
C849: x25+x67 <=1 
C850: x26+x29 <=1 
C851: x26+x30-y26_30 <=1 
C852: x26+x32 <=1 
C853: x26+x34-y26_34 <=1 
C854: x26+x38 <=1 
C855: x26+x44 <=1 
C856: x26+x45 <=1 
C857: x26+x46-y26_46 <=1 
C858: x26+x48-y26_48 <=1 
C859: x26+x50 <=1 
C860: x26+x53 <=1 
C861: x26+x54 <=1 
C862: x26+x55 <=1 
C863: x26+x59-y26_59 <=1 
C864: x26+x63-y26_63 <=1 
C865: x26+x64 <=1 
C866: x26+x65 <=1 
C867: x26+x66-y26_66 <=1 
C868: x26+x67 <=1 
C869: x27+x29-y27_29 <=1 
C870: x27+x30-y27_30 <=1 
C871: x27+x31 <=1 
C872: x27+x37-y27_37 <=1 
C873: x27+x38 <=1 
C874: x27+x39-y27_39 <=1 
C875: x27+x40-y27_40 <=1 
C876: x27+x41-y27_41 <=1 
C877: x27+x42 <=1 
C878: x27+x45 <=1 
C879: x27+x48-y27_48 <=1 
C880: x27+x50-y27_50 <=1 
C881: x27+x52-y27_52 <=1 
C882: x27+x56 <=1 
C883: x27+x57-y27_57 <=1 
C884: x27+x58-y27_58 <=1 
C885: x27+x59-y27_59 <=1 
C886: x27+x61-y27_61 <=1 
C887: x27+x62-y27_62 <=1 
C888: x27+x63 <=1 
C889: x27+x65 <=1 
C890: x28+x30 <=1 
C891: x28+x36-y28_36 <=1 
C892: x28+x37 <=1 
C893: x28+x38 <=1 
C894: x28+x40-y28_40 <=1 
C895: x28+x41 <=1 
C896: x28+x43 <=1 
C897: x28+x45 <=1 
C898: x28+x46-y28_46 <=1 
C899: x28+x50-y28_50 <=1 
C900: x28+x51 <=1 
C901: x28+x53 <=1 
C902: x28+x55-y28_55 <=1 
C903: x28+x56-y28_56 <=1 
C904: x28+x59-y28_59 <=1 
C905: x28+x60 <=1 
C906: x28+x63 <=1 
C907: x28+x65 <=1 
C908: x28+x66-y28_66 <=1 
C909: x29+x30-y29_30 <=1 
C910: x29+x31 <=1 
C911: x29+x32 <=1 
C912: x29+x35-y29_35 <=1 
C913: x29+x36 <=1 
C914: x29+x37-y29_37 <=1 
C915: x29+x38-y29_38 <=1 
C916: x29+x41-y29_41 <=1 
C917: x29+x42 <=1 
C918: x29+x43-y29_43 <=1 
C919: x29+x44-y29_44 <=1 
C920: x29+x47-y29_47 <=1 
C921: x29+x48 <=1 
C922: x29+x49-y29_49 <=1 
C923: x29+x51 <=1 
C924: x29+x52-y29_52 <=1 
C925: x29+x53-y29_53 <=1 
C926: x29+x55-y29_55 <=1 
C927: x29+x57-y29_57 <=1 
C928: x29+x58-y29_58 <=1 
C929: x29+x59-y29_59 <=1 
C930: x29+x60-y29_60 <=1 
C931: x29+x61 <=1 
C932: x29+x63-y29_63 <=1 
C933: x29+x64-y29_64 <=1 
C934: x29+x66 <=1 
C935: x30+x31-y30_31 <=1 
C936: x30+x32 <=1 
C937: x30+x33 <=1 
C938: x30+x34-y30_34 <=1 
C939: x30+x36 <=1 
C940: x30+x37 <=1 
C941: x30+x38-y30_38 <=1 
C942: x30+x42-y30_42 <=1 
C943: x30+x43 <=1 
C944: x30+x45-y30_45 <=1 
C945: x30+x46 <=1 
C946: x30+x48-y30_48 <=1 
C947: x30+x49-y30_49 <=1 
C948: x30+x50-y30_50 <=1 
C949: x30+x52-y30_52 <=1 
C950: x30+x54 <=1 
C951: x30+x55 <=1 
C952: x30+x56 <=1 
C953: x30+x57 <=1 
C954: x30+x58 <=1 
C955: x30+x59 <=1 
C956: x30+x60-y30_60 <=1 
C957: x30+x61 <=1 
C958: x30+x63 <=1 
C959: x30+x65-y30_65 <=1 
C960: x30+x66 <=1 
C961: x30+x67 <=1 
C962: x31+x32 <=1 
C963: x31+x33 <=1 
C964: x31+x36 <=1 
C965: x31+x37 <=1 
C966: x31+x38-y31_38 <=1 
C967: x31+x39 <=1 
C968: x31+x43 <=1 
C969: x31+x44-y31_44 <=1 
C970: x31+x46 <=1 
C971: x31+x47-y31_47 <=1 
C972: x31+x48-y31_48 <=1 
C973: x31+x49-y31_49 <=1 
C974: x31+x51-y31_51 <=1 
C975: x31+x52-y31_52 <=1 
C976: x31+x53-y31_53 <=1 
C977: x31+x55 <=1 
C978: x31+x56 <=1 
C979: x31+x57 <=1 
C980: x31+x60 <=1 
C981: x31+x65 <=1 
C982: x31+x66 <=1 
C983: x31+x67-y31_67 <=1 
C984: x32+x34-y32_34 <=1 
C985: x32+x37 <=1 
C986: x32+x38 <=1 
C987: x32+x39-y32_39 <=1 
C988: x32+x40 <=1 
C989: x32+x44-y32_44 <=1 
C990: x32+x45-y32_45 <=1 
C991: x32+x47 <=1 
C992: x32+x48 <=1 
C993: x32+x50 <=1 
C994: x32+x51 <=1 
C995: x32+x52-y32_52 <=1 
C996: x32+x55-y32_55 <=1 
C997: x32+x56 <=1 
C998: x32+x59 <=1 
C999: x32+x60-y32_60 <=1 
C1000: x32+x61-y32_61 <=1 
C1001: x32+x64 <=1 
C1002: x32+x65 <=1 
C1003: x33+x36 <=1 
C1004: x33+x37 <=1 
C1005: x33+x38 <=1 
C1006: x33+x42-y33_42 <=1 
C1007: x33+x43-y33_43 <=1 
C1008: x33+x44 <=1 
C1009: x33+x45-y33_45 <=1 
C1010: x33+x47-y33_47 <=1 
C1011: x33+x50 <=1 
C1012: x33+x52-y33_52 <=1 
C1013: x33+x53 <=1 
C1014: x33+x54-y33_54 <=1 
C1015: x33+x55 <=1 
C1016: x33+x56 <=1 
C1017: x33+x57-y33_57 <=1 
C1018: x33+x58 <=1 
C1019: x33+x59-y33_59 <=1 
C1020: x33+x60 <=1 
C1021: x33+x61-y33_61 <=1 
C1022: x33+x62-y33_62 <=1 
C1023: x33+x64-y33_64 <=1 
C1024: x33+x65 <=1 
C1025: x33+x66-y33_66 <=1 
C1026: x34+x35 <=1 
C1027: x34+x36-y34_36 <=1 
C1028: x34+x38-y34_38 <=1 
C1029: x34+x39-y34_39 <=1 
C1030: x34+x40 <=1 
C1031: x34+x42-y34_42 <=1 
C1032: x34+x43-y34_43 <=1 
C1033: x34+x44-y34_44 <=1 
C1034: x34+x46 <=1 
C1035: x34+x47-y34_47 <=1 
C1036: x34+x48 <=1 
C1037: x34+x50-y34_50 <=1 
C1038: x34+x51 <=1 
C1039: x34+x53 <=1 
C1040: x34+x62-y34_62 <=1 
C1041: x34+x63-y34_63 <=1 
C1042: x34+x65-y34_65 <=1 
C1043: x34+x67 <=1 
C1044: x35+x37 <=1 
C1045: x35+x38 <=1 
C1046: x35+x39 <=1 
C1047: x35+x40 <=1 
C1048: x35+x41 <=1 
C1049: x35+x42-y35_42 <=1 
C1050: x35+x43-y35_43 <=1 
C1051: x35+x44-y35_44 <=1 
C1052: x35+x46-y35_46 <=1 
C1053: x35+x50 <=1 
C1054: x35+x53 <=1 
C1055: x35+x55-y35_55 <=1 
C1056: x35+x56 <=1 
C1057: x35+x57 <=1 
C1058: x35+x59 <=1 
C1059: x35+x60 <=1 
C1060: x35+x61 <=1 
C1061: x35+x62 <=1 
C1062: x35+x63-y35_63 <=1 
C1063: x35+x66 <=1 
C1064: x35+x67-y35_67 <=1 
C1065: x36+x37-y36_37 <=1 
C1066: x36+x38 <=1 
C1067: x36+x42 <=1 
C1068: x36+x44-y36_44 <=1 
C1069: x36+x46-y36_46 <=1 
C1070: x36+x47-y36_47 <=1 
C1071: x36+x49-y36_49 <=1 
C1072: x36+x50 <=1 
C1073: x36+x52 <=1 
C1074: x36+x53-y36_53 <=1 
C1075: x36+x58-y36_58 <=1 
C1076: x36+x60 <=1 
C1077: x36+x61 <=1 
C1078: x36+x62 <=1 
C1079: x36+x64-y36_64 <=1 
C1080: x36+x65 <=1 
C1081: x36+x66-y36_66 <=1 
C1082: x37+x38 <=1 
C1083: x37+x39-y37_39 <=1 
C1084: x37+x45-y37_45 <=1 
C1085: x37+x47-y37_47 <=1 
C1086: x37+x50-y37_50 <=1 
C1087: x37+x52-y37_52 <=1 
C1088: x37+x56 <=1 
C1089: x37+x58-y37_58 <=1 
C1090: x37+x59-y37_59 <=1 
C1091: x37+x63-y37_63 <=1 
C1092: x37+x64 <=1 
C1093: x37+x67-y37_67 <=1 
C1094: x38+x39-y38_39 <=1 
C1095: x38+x42-y38_42 <=1 
C1096: x38+x43 <=1 
C1097: x38+x45-y38_45 <=1 
C1098: x38+x47 <=1 
C1099: x38+x49 <=1 
C1100: x38+x50-y38_50 <=1 
C1101: x38+x51-y38_51 <=1 
C1102: x38+x52-y38_52 <=1 
C1103: x38+x53-y38_53 <=1 
C1104: x38+x55-y38_55 <=1 
C1105: x38+x57-y38_57 <=1 
C1106: x38+x58-y38_58 <=1 
C1107: x38+x59 <=1 
C1108: x38+x60 <=1 
C1109: x38+x61-y38_61 <=1 
C1110: x38+x62 <=1 
C1111: x38+x63 <=1 
C1112: x38+x64 <=1 
C1113: x38+x66 <=1 
C1114: x38+x67 <=1 
C1115: x39+x43 <=1 
C1116: x39+x45 <=1 
C1117: x39+x47-y39_47 <=1 
C1118: x39+x48-y39_48 <=1 
C1119: x39+x49-y39_49 <=1 
C1120: x39+x50 <=1 
C1121: x39+x52 <=1 
C1122: x39+x53-y39_53 <=1 
C1123: x39+x54-y39_54 <=1 
C1124: x39+x55 <=1 
C1125: x39+x56 <=1 
C1126: x39+x57 <=1 
C1127: x39+x58 <=1 
C1128: x39+x61 <=1 
C1129: x39+x63-y39_63 <=1 
C1130: x39+x64 <=1 
C1131: x39+x65-y39_65 <=1 
C1132: x39+x67 <=1 
C1133: x40+x43-y40_43 <=1 
C1134: x40+x45 <=1 
C1135: x40+x46-y40_46 <=1 
C1136: x40+x47 <=1 
C1137: x40+x49 <=1 
C1138: x40+x50 <=1 
C1139: x40+x53 <=1 
C1140: x40+x54-y40_54 <=1 
C1141: x40+x60-y40_60 <=1 
C1142: x40+x61 <=1 
C1143: x40+x62 <=1 
C1144: x40+x65 <=1 
C1145: x41+x43 <=1 
C1146: x41+x45-y41_45 <=1 
C1147: x41+x49 <=1 
C1148: x41+x52-y41_52 <=1 
C1149: x41+x56-y41_56 <=1 
C1150: x41+x59 <=1 
C1151: x41+x63 <=1 
C1152: x41+x65-y41_65 <=1 
C1153: x41+x66 <=1 
C1154: x41+x67-y41_67 <=1 
C1155: x42+x43 <=1 
C1156: x42+x51-y42_51 <=1 
C1157: x42+x52-y42_52 <=1 
C1158: x42+x53-y42_53 <=1 
C1159: x42+x55 <=1 
C1160: x42+x58-y42_58 <=1 
C1161: x42+x59-y42_59 <=1 
C1162: x42+x62-y42_62 <=1 
C1163: x42+x63 <=1 
C1164: x42+x64-y42_64 <=1 
C1165: x42+x65-y42_65 <=1 
C1166: x42+x66 <=1 
C1167: x42+x67 <=1 
C1168: x43+x45 <=1 
C1169: x43+x46 <=1 
C1170: x43+x47 <=1 
C1171: x43+x48 <=1 
C1172: x43+x49-y43_49 <=1 
C1173: x43+x51-y43_51 <=1 
C1174: x43+x52 <=1 
C1175: x43+x54-y43_54 <=1 
C1176: x43+x55-y43_55 <=1 
C1177: x43+x58 <=1 
C1178: x43+x59-y43_59 <=1 
C1179: x43+x61 <=1 
C1180: x43+x65-y43_65 <=1 
C1181: x44+x47-y44_47 <=1 
C1182: x44+x51-y44_51 <=1 
C1183: x44+x53-y44_53 <=1 
C1184: x44+x54 <=1 
C1185: x44+x55-y44_55 <=1 
C1186: x44+x57-y44_57 <=1 
C1187: x44+x60 <=1 
C1188: x44+x61 <=1 
C1189: x44+x62 <=1 
C1190: x44+x63-y44_63 <=1 
C1191: x44+x64 <=1 
C1192: x44+x67 <=1 
C1193: x45+x46 <=1 
C1194: x45+x47 <=1 
C1195: x45+x48 <=1 
C1196: x45+x52-y45_52 <=1 
C1197: x45+x54 <=1 
C1198: x45+x55-y45_55 <=1 
C1199: x45+x58 <=1 
C1200: x45+x59 <=1 
C1201: x45+x60-y45_60 <=1 
C1202: x45+x61-y45_61 <=1 
C1203: x45+x62 <=1 
C1204: x45+x64 <=1 
C1205: x45+x65 <=1 
C1206: x45+x67-y45_67 <=1 
C1207: x46+x47 <=1 
C1208: x46+x53-y46_53 <=1 
C1209: x46+x55-y46_55 <=1 
C1210: x46+x56 <=1 
C1211: x46+x57-y46_57 <=1 
C1212: x46+x58 <=1 
C1213: x46+x60 <=1 
C1214: x46+x62 <=1 
C1215: x46+x63 <=1 
C1216: x46+x64-y46_64 <=1 
C1217: x46+x66-y46_66 <=1 
C1218: x47+x48-y47_48 <=1 
C1219: x47+x51-y47_51 <=1 
C1220: x47+x57 <=1 
C1221: x47+x58-y47_58 <=1 
C1222: x47+x60-y47_60 <=1 
C1223: x47+x61-y47_61 <=1 
C1224: x47+x62 <=1 
C1225: x47+x63-y47_63 <=1 
C1226: x47+x65-y47_65 <=1 
C1227: x47+x67 <=1 
C1228: x48+x51-y48_51 <=1 
C1229: x48+x59 <=1 
C1230: x48+x63 <=1 
C1231: x48+x65-y48_65 <=1 
C1232: x48+x66-y48_66 <=1 
C1233: x49+x51 <=1 
C1234: x49+x52-y49_52 <=1 
C1235: x49+x53-y49_53 <=1 
C1236: x49+x55-y49_55 <=1 
C1237: x49+x56 <=1 
C1238: x49+x57-y49_57 <=1 
C1239: x49+x58 <=1 
C1240: x49+x63-y49_63 <=1 
C1241: x49+x64-y49_64 <=1 
C1242: x49+x65-y49_65 <=1 
C1243: x49+x66-y49_66 <=1 
C1244: x49+x67 <=1 
C1245: x50+x51 <=1 
C1246: x50+x52 <=1 
C1247: x50+x54 <=1 
C1248: x50+x55 <=1 
C1249: x50+x56 <=1 
C1250: x50+x59-y50_59 <=1 
C1251: x50+x60-y50_60 <=1 
C1252: x50+x61-y50_61 <=1 
C1253: x50+x64 <=1 
C1254: x50+x65 <=1 
C1255: x50+x66-y50_66 <=1 
C1256: x50+x67 <=1 
C1257: x51+x52-y51_52 <=1 
C1258: x51+x54-y51_54 <=1 
C1259: x51+x58-y51_58 <=1 
C1260: x51+x60-y51_60 <=1 
C1261: x51+x61 <=1 
C1262: x51+x62-y51_62 <=1 
C1263: x51+x65 <=1 
C1264: x51+x66 <=1 
C1265: x52+x53 <=1 
C1266: x52+x54-y52_54 <=1 
C1267: x52+x55-y52_55 <=1 
C1268: x52+x56-y52_56 <=1 
C1269: x52+x58 <=1 
C1270: x52+x59-y52_59 <=1 
C1271: x52+x60-y52_60 <=1 
C1272: x52+x61 <=1 
C1273: x52+x62-y52_62 <=1 
C1274: x52+x63 <=1 
C1275: x52+x65 <=1 
C1276: x52+x66-y52_66 <=1 
C1277: x53+x54 <=1 
C1278: x53+x55-y53_55 <=1 
C1279: x53+x56-y53_56 <=1 
C1280: x53+x57 <=1 
C1281: x53+x60 <=1 
C1282: x53+x61-y53_61 <=1 
C1283: x53+x63 <=1 
C1284: x53+x64 <=1 
C1285: x53+x65 <=1 
C1286: x53+x67 <=1 
C1287: x54+x55 <=1 
C1288: x54+x56-y54_56 <=1 
C1289: x54+x58 <=1 
C1290: x54+x60 <=1 
C1291: x54+x61 <=1 
C1292: x54+x62-y54_62 <=1 
C1293: x54+x63-y54_63 <=1 
C1294: x54+x64 <=1 
C1295: x54+x65-y54_65 <=1 
C1296: x54+x67-y54_67 <=1 
C1297: x55+x57-y55_57 <=1 
C1298: x55+x59-y55_59 <=1 
C1299: x55+x62-y55_62 <=1 
C1300: x55+x64-y55_64 <=1 
C1301: x55+x66 <=1 
C1302: x55+x67-y55_67 <=1 
C1303: x56+x57-y56_57 <=1 
C1304: x56+x58 <=1 
C1305: x56+x59-y56_59 <=1 
C1306: x56+x60-y56_60 <=1 
C1307: x56+x62-y56_62 <=1 
C1308: x56+x66-y56_66 <=1 
C1309: x57+x61-y57_61 <=1 
C1310: x57+x62 <=1 
C1311: x57+x63 <=1 
C1312: x57+x65-y57_65 <=1 
C1313: x58+x59 <=1 
C1314: x58+x60 <=1 
C1315: x58+x61 <=1 
C1316: x58+x63-y58_63 <=1 
C1317: x58+x64-y58_64 <=1 
C1318: x58+x66-y58_66 <=1 
C1319: x58+x67-y58_67 <=1 
C1320: x59+x62 <=1 
C1321: x59+x63 <=1 
C1322: x59+x64 <=1 
C1323: x59+x66-y59_66 <=1 
C1324: x60+x61-y60_61 <=1 
C1325: x60+x62 <=1 
C1326: x60+x64-y60_64 <=1 
C1327: x60+x65-y60_65 <=1 
C1328: x60+x66 <=1 
C1329: x61+x62-y61_62 <=1 
C1330: x61+x63 <=1 
C1331: x61+x64 <=1 
C1332: x61+x66-y61_66 <=1 
C1333: x61+x67-y61_67 <=1 
C1334: x62+x63-y62_63 <=1 
C1335: x62+x65 <=1 
C1336: x62+x66 <=1 
C1337: x63+x65-y63_65 <=1 
C1338: x63+x66-y63_66 <=1 
C1339: x63+x67-y63_67 <=1 
C1340: x64+x65-y64_65 <=1 
C1341: x65+x66-y65_66 <=1 

binary
x0
x1
x2
x3
x4
x5
x6
x7
x8
x9
x10
x11
x12
x13
x14
x15
x16
x17
x18
x19
x20
x21
x22
x23
x24
x25
x26
x27
x28
x29
x30
x31
x32
x33
x34
x35
x36
x37
x38
x39
x40
x41
x42
x43
x44
x45
x46
x47
x48
x49
x50
x51
x52
x53
x54
x55
x56
x57
x58
x59
x60
x61
x62
x63
x64
x65
x66
x67
