problem_generation/data/GISP/train/er_n=68_m=1341_p=0.60_SET2_setparam=100.00_alpha=0.50_193.sol
objective value:                                 1280
x17                                                 1 	(obj:100)
x19                                                 1 	(obj:100)
x22                                                 1 	(obj:100)
x24                                                 1 	(obj:100)
x27                                                 1 	(obj:100)
x28                                                 1 	(obj:100)
x32                                                 1 	(obj:100)
x33                                                 1 	(obj:100)
x35                                                 1 	(obj:100)
x46                                                 1 	(obj:100)
x49                                                 1 	(obj:100)
x52                                                 1 	(obj:100)
x54                                                 1 	(obj:100)
y22_32                                              1 	(obj:-1)
y24_46                                              1 	(obj:-1)
y35_46                                              1 	(obj:-1)
y24_32                                              1 	(obj:-1)
y17_19                                              1 	(obj:-1)
y17_28                                              1 	(obj:-1)
y22_54                                              1 	(obj:-1)
y52_54                                              1 	(obj:-1)
y33_54                                              1 	(obj:-1)
y17_46                                              1 	(obj:-1)
y28_46                                              1 	(obj:-1)
y32_52                                              1 	(obj:-1)
y24_52                                              1 	(obj:-1)
y17_22                                              1 	(obj:-1)
y27_52                                              1 	(obj:-1)
y49_52                                              1 	(obj:-1)
y19_24                                              1 	(obj:-1)
y22_52                                              1 	(obj:-1)
y33_52                                              1 	(obj:-1)
y22_24                                              1 	(obj:-1)
